words_easy_train/words_701_SAT.qaiger
aag 35 16 0 1 19
26
6
22
24
28
4
10
18
8
14
12
16
30
32
2
20
71
34 20 5
36 35 19
38 21 4
40 39 33
42 40 36
44 26 11
46 31 14
48 47 45
50 48 42
52 23 6
54 22 7
56 55 53
58 27 10
60 29 25
62 60 59
64 30 15
66 65 62
68 66 56
70 68 50
i0 1 x2[4]
i1 2 y2[2]
i2 1 x2[2]
i3 1 x2[3]
i4 1 x2[5]
i5 2 y2[1]
i6 2 y2[4]
i7 1 x2[0]
i8 2 y2[3]
i9 2 y2[6]
i10 2 y2[5]
i11 2 y2[7]
i12 1 x2[6]
i13 1 x2[7]
i14 2 y2[0]
i15 1 x2[1]
o0 bool[0]
c
simplified
  !=
    and
      abs
        -170
      2 y2
    1 x2
