words_easy_train/words_701_SAT.qaiger.qdimacs
p cnf 35 58
a 9 10 11 12 13 14 15 16 0
e 1 2 3 4 5 6 7 8 17 18 19 20 21 22 23 24 25 26 27 28 29 30 31 32 33 34 35 0
-10 2 17 0
10 -17 0
-2 -17 0
17 9 18 0
-17 -18 0
-9 -18 0
10 -2 19 0
-10 -19 0
2 -19 0
19 16 20 0
-19 -20 0
-16 -20 0
-20 -18 21 0
20 -21 0
18 -21 0
-13 5 22 0
13 -22 0
-5 -22 0
15 -7 23 0
-15 -23 0
7 -23 0
23 22 24 0
-23 -24 0
-22 -24 0
-24 -21 25 0
24 -25 0
21 -25 0
11 -3 26 0
-11 -26 0
3 -26 0
-11 3 27 0
11 -27 0
-3 -27 0
27 26 28 0
-27 -28 0
-26 -28 0
13 -5 29 0
-13 -29 0
5 -29 0
14 12 30 0
-14 -30 0
-12 -30 0
-30 29 31 0
30 -31 0
-29 -31 0
-15 7 32 0
15 -32 0
-7 -32 0
32 -31 33 0
-32 -33 0
31 -33 0
-33 -28 34 0
33 -34 0
28 -34 0
-34 -25 35 0
34 -35 0
25 -35 0
-35 0
